
Gurobi 6.5.2 (linux64) logging started Tue Mar 21 10:45:29 2017


Gurobi 6.5.2 (linux64) logging started Tue Mar 21 10:45:29 2017

Optimize a model with 101 rows, 418 columns and 1101 nonzeros
Coefficient statistics:
  Matrix range    [1e+00, 2e+00]
  Objective range [1e+00, 1e+02]
  Bounds range    [1e+00, 1e+00]
  RHS range       [1e+00, 1e+00]
Found heuristic solution: objective 1191
Presolve removed 23 rows and 2 columns
Presolve time: 0.00s
Presolved: 78 rows, 416 columns, 942 nonzeros
Variable types: 0 continuous, 416 integer (416 binary)

Root relaxation: objective 4.810000e+02, 62 iterations, 0.00 seconds

    Nodes    |    Current Node    |     Objective Bounds      |     Work
 Expl Unexpl |  Obj  Depth IntInf | Incumbent    BestBd   Gap | It/Node Time

     0     0  481.00000    0   40 1191.00000  481.00000  59.6%     -    0s
     0     0  539.12037    0   50 1191.00000  539.12037  54.7%     -    0s
H    0     0                    1027.0000000  539.12037  47.5%     -    0s
     0     0  562.39583    0   66 1027.00000  562.39583  45.2%     -    0s
H    0     0                     887.0000000  562.39583  36.6%     -    0s
     0     0  565.91862    0   57  887.00000  565.91862  36.2%     -    0s
     0     0  571.51875    0   84  887.00000  571.51875  35.6%     -    0s
     0     0  572.41641    0   82  887.00000  572.41641  35.5%     -    0s
     0     0  580.08280    0   81  887.00000  580.08280  34.6%     -    0s
     0     0  580.84439    0   85  887.00000  580.84439  34.5%     -    0s
     0     0  585.32555    0   81  887.00000  585.32555  34.0%     -    0s
     0     0  585.32555    0   74  887.00000  585.32555  34.0%     -    0s
     0     2  585.32555    0   74  887.00000  585.32555  34.0%     -    0s
*  111    70              23     725.0000000  603.83858  16.7%   9.8    0s
*  117    70              25     714.0000000  603.83858  15.4%   9.6    0s
*  226   118              24     681.0000000  613.34722  9.93%   9.1    0s
*  347   103              21     672.0000000  616.48810  8.26%   8.6    0s
*  360    63              14     653.0000000  616.48810  5.59%   8.6    0s
*  564    48              10     649.0000000  622.76607  4.04%   8.5    0s
*  703    38               9     645.0000000  626.50000  2.87%   8.6    0s

Cutting planes:
  Gomory: 14
  Cover: 119
  MIR: 8
  Zero half: 10
  Lazy constraints: 54

Explored 840 nodes (7143 simplex iterations) in 0.38 seconds
Thread count was 4 (of 4 available processors)

Optimal solution found (tolerance 1.00e-04)
Best objective 6.450000000000e+02, best bound 6.450000000000e+02, gap 0.0%
